p cnf 177 737
60 118 0
58 91 99 173 0
49 52 55 70 0
78 84 122 0
47 82 96 0
75 102 107 126 0
67 80 109 0
104 113 114 116 132 0
65 66 111 0
63 175 0
61 74 140 0
85 97 149 0
59 87 151 0
54 57 68 101 0
51 71 110 0
64 93 124 0
44 46 73 83 0
42 43 90 0
88 119 0
53 69 121 0
123 171 0
76 103 127 0
129 131 0
112 115 133 0
134 136 159 0
137 138 141 0
143 144 145 147 0
86 120 148 150 0
89 92 152 0
50 72 153 154 0
48 125 155 0
156 169 0
106 108 128 157 0
105 117 158 161 0
162 163 164 0
165 166 0
62 139 142 167 0
-91 -98 0
-55 -98 0
-94 -98 0
-55 -91 0
-91 -94 0
-55 -94 0
-113 -168 0
-160 -168 0
-168 -175 0
-113 -160 0
-113 -175 0
-160 -175 0
-59 -101 0
-51 -59 0
-59 -170 0
-51 -101 0
-101 -170 0
-51 -170 0
-119 -121 0
-119 -174 0
-119 -123 0
-121 -174 0
-121 -123 0
-123 -174 0
-98 -168 0
-59 -98 0
-98 -119 0
-59 -168 0
-119 -168 0
-59 -119 0
-91 -113 0
-91 -101 0
-91 -121 0
-101 -113 0
-113 -121 0
-101 -121 0
-55 -160 0
-51 -55 0
-55 -174 0
-51 -160 0
-160 -174 0
-51 -174 0
-94 -175 0
-94 -170 0
-94 -123 0
-170 -175 0
-123 -175 0
-123 -170 0
-52 -99 0
-99 -172 0
-96 -99 0
-52 -172 0
-52 -96 0
-96 -172 0
-112 -159 0
-112 -176 0
-112 -137 0
-159 -176 0
-137 -159 0
-137 -176 0
-50 -100 0
-100 -169 0
-100 -177 0
-50 -169 0
-50 -177 0
-169 -177 0
-105 -162 0
-105 -165 0
-105 -139 0
-162 -165 0
-139 -162 0
-139 -165 0
-99 -112 0
-99 -100 0
-99 -105 0
-100 -112 0
-105 -112 0
-100 -105 0
-52 -159 0
-50 -52 0
-52 -162 0
-50 -159 0
-159 -162 0
-50 -162 0
-172 -176 0
-169 -172 0
-165 -172 0
-169 -176 0
-165 -176 0
-165 -169 0
-96 -137 0
-96 -177 0
-96 -139 0
-137 -177 0
-137 -139 0
-139 -177 0
-40 -149 0
-40 -64 0
-39 -40 0
-40 -73 0
-64 -149 0
-39 -149 0
-73 -149 0
-39 -64 0
-64 -73 0
-39 -73 0
-38 -43 0
-37 -43 0
-43 -171 0
-43 -95 0
-37 -38 0
-38 -171 0
-38 -95 0
-37 -171 0
-37 -95 0
-95 -171 0
-36 -76 0
-35 -76 0
-34 -76 0
-76 -138 0
-35 -36 0
-34 -36 0
-36 -138 0
-34 -35 0
-35 -138 0
-34 -138 0
-143 -148 0
-143 -155 0
-143 -156 0
-33 -143 0
-148 -155 0
-148 -156 0
-33 -148 0
-155 -156 0
-33 -155 0
-33 -156 0
-32 -106 0
-31 -106 0
-106 -166 0
-62 -106 0
-31 -32 0
-32 -166 0
-32 -62 0
-31 -166 0
-31 -62 0
-62 -166 0
-40 -43 0
-40 -76 0
-40 -143 0
-40 -106 0
-43 -76 0
-43 -143 0
-43 -106 0
-76 -143 0
-76 -106 0
-106 -143 0
-38 -149 0
-36 -149 0
-148 -149 0
-32 -149 0
-36 -38 0
-38 -148 0
-32 -38 0
-36 -148 0
-32 -36 0
-32 -148 0
-37 -64 0
-35 -64 0
-64 -155 0
-31 -64 0
-35 -37 0
-37 -155 0
-31 -37 0
-35 -155 0
-31 -35 0
-31 -155 0
-39 -171 0
-34 -39 0
-39 -156 0
-39 -166 0
-34 -171 0
-156 -171 0
-166 -171 0
-34 -156 0
-34 -166 0
-156 -166 0
-73 -95 0
-73 -138 0
-33 -73 0
-62 -73 0
-95 -138 0
-33 -95 0
-62 -95 0
-33 -138 0
-62 -138 0
-33 -62 0
-80 -130 0
-80 -132 0
-80 -135 0
-130 -132 0
-130 -135 0
-132 -135 0
-85 -151 0
-57 -85 0
-71 -85 0
-57 -151 0
-71 -151 0
-57 -71 0
-30 -129 0
-30 -115 0
-30 -134 0
-115 -129 0
-129 -134 0
-115 -134 0
-89 -150 0
-29 -150 0
-150 -153 0
-29 -89 0
-89 -153 0
-29 -153 0
-80 -85 0
-30 -80 0
-80 -150 0
-30 -85 0
-85 -150 0
-30 -150 0
-130 -151 0
-129 -130 0
-89 -130 0
-129 -151 0
-89 -151 0
-89 -129 0
-57 -132 0
-115 -132 0
-29 -132 0
-57 -115 0
-29 -57 0
-29 -115 0
-71 -135 0
-134 -135 0
-135 -153 0
-71 -134 0
-71 -153 0
-134 -153 0
-28 -60 0
-27 -28 0
-28 -58 0
-28 -49 0
-28 -84 0
-27 -60 0
-58 -60 0
-49 -60 0
-60 -84 0
-27 -58 0
-27 -49 0
-27 -84 0
-49 -58 0
-58 -84 0
-49 -84 0
-67 -75 0
-26 -75 0
-75 -104 0
-25 -75 0
-75 -111 0
-26 -67 0
-67 -104 0
-25 -67 0
-67 -111 0
-26 -104 0
-25 -26 0
-26 -111 0
-25 -104 0
-104 -111 0
-25 -111 0
-24 -90 0
-88 -90 0
-69 -90 0
-23 -90 0
-22 -90 0
-24 -88 0
-24 -69 0
-23 -24 0
-22 -24 0
-69 -88 0
-23 -88 0
-22 -88 0
-23 -69 0
-22 -69 0
-22 -23 0
-79 -103 0
-103 -131 0
-103 -133 0
-103 -136 0
-21 -103 0
-79 -131 0
-79 -133 0
-79 -136 0
-21 -79 0
-131 -133 0
-131 -136 0
-21 -131 0
-133 -136 0
-21 -133 0
-21 -136 0
-86 -144 0
-144 -152 0
-56 -144 0
-72 -144 0
-48 -144 0
-86 -152 0
-56 -86 0
-72 -86 0
-48 -86 0
-56 -152 0
-72 -152 0
-48 -152 0
-56 -72 0
-48 -56 0
-48 -72 0
-20 -108 0
-19 -108 0
-108 -117 0
-108 -163 0
-18 -108 0
-19 -20 0
-20 -117 0
-20 -163 0
-18 -20 0
-19 -117 0
-19 -163 0
-18 -19 0
-117 -163 0
-18 -117 0
-18 -163 0
-28 -75 0
-28 -90 0
-28 -103 0
-28 -144 0
-28 -108 0
-75 -90 0
-75 -103 0
-75 -144 0
-75 -108 0
-90 -103 0
-90 -144 0
-90 -108 0
-103 -144 0
-103 -108 0
-108 -144 0
-60 -67 0
-24 -60 0
-60 -79 0
-60 -86 0
-20 -60 0
-24 -67 0
-67 -79 0
-67 -86 0
-20 -67 0
-24 -79 0
-24 -86 0
-20 -24 0
-79 -86 0
-20 -79 0
-20 -86 0
-26 -27 0
-27 -88 0
-27 -131 0
-27 -152 0
-19 -27 0
-26 -88 0
-26 -131 0
-26 -152 0
-19 -26 0
-88 -131 0
-88 -152 0
-19 -88 0
-131 -152 0
-19 -131 0
-19 -152 0
-58 -104 0
-58 -69 0
-58 -133 0
-56 -58 0
-58 -117 0
-69 -104 0
-104 -133 0
-56 -104 0
-104 -117 0
-69 -133 0
-56 -69 0
-69 -117 0
-56 -133 0
-117 -133 0
-56 -117 0
-25 -49 0
-23 -49 0
-49 -136 0
-49 -72 0
-49 -163 0
-23 -25 0
-25 -136 0
-25 -72 0
-25 -163 0
-23 -136 0
-23 -72 0
-23 -163 0
-72 -136 0
-136 -163 0
-72 -163 0
-84 -111 0
-22 -84 0
-21 -84 0
-48 -84 0
-18 -84 0
-22 -111 0
-21 -111 0
-48 -111 0
-18 -111 0
-21 -22 0
-22 -48 0
-18 -22 0
-21 -48 0
-18 -21 0
-18 -48 0
-17 -126 0
-114 -126 0
-126 -140 0
-17 -114 0
-17 -140 0
-114 -140 0
-16 -87 0
-16 -68 0
-16 -83 0
-68 -87 0
-83 -87 0
-68 -83 0
-92 -145 0
-15 -145 0
-14 -145 0
-15 -92 0
-14 -92 0
-14 -15 0
-13 -128 0
-128 -158 0
-128 -142 0
-13 -158 0
-13 -142 0
-142 -158 0
-16 -126 0
-126 -145 0
-126 -128 0
-16 -145 0
-16 -128 0
-128 -145 0
-17 -87 0
-17 -92 0
-13 -17 0
-87 -92 0
-13 -87 0
-13 -92 0
-68 -114 0
-15 -114 0
-114 -158 0
-15 -68 0
-68 -158 0
-15 -158 0
-83 -140 0
-14 -140 0
-140 -142 0
-14 -83 0
-83 -142 0
-14 -142 0
-41 -78 0
-12 -41 0
-41 -82 0
-12 -78 0
-78 -82 0
-12 -82 0
-66 -102 0
-63 -102 0
-61 -102 0
-63 -66 0
-61 -66 0
-61 -63 0
-124 -146 0
-11 -146 0
-46 -146 0
-11 -124 0
-46 -124 0
-11 -46 0
-10 -127 0
-9 -127 0
-127 -141 0
-9 -10 0
-10 -141 0
-9 -141 0
-41 -102 0
-41 -146 0
-41 -127 0
-102 -146 0
-102 -127 0
-127 -146 0
-66 -78 0
-78 -124 0
-10 -78 0
-66 -124 0
-10 -66 0
-10 -124 0
-12 -63 0
-11 -12 0
-9 -12 0
-11 -63 0
-9 -63 0
-9 -11 0
-61 -82 0
-46 -82 0
-82 -141 0
-46 -61 0
-61 -141 0
-46 -141 0
-8 -118 0
-8 -173 0
-8 -70 0
-8 -122 0
-8 -47 0
-118 -173 0
-70 -118 0
-118 -122 0
-47 -118 0
-70 -173 0
-122 -173 0
-47 -173 0
-70 -122 0
-47 -70 0
-47 -122 0
-107 -109 0
-107 -116 0
-7 -107 0
-65 -107 0
-74 -107 0
-109 -116 0
-7 -109 0
-65 -109 0
-74 -109 0
-7 -116 0
-65 -116 0
-74 -116 0
-7 -65 0
-7 -74 0
-65 -74 0
-6 -97 0
-6 -54 0
-6 -110 0
-6 -93 0
-6 -44 0
-54 -97 0
-97 -110 0
-93 -97 0
-44 -97 0
-54 -110 0
-54 -93 0
-44 -54 0
-93 -110 0
-44 -110 0
-44 -93 0
-5 -42 0
-42 -53 0
-4 -42 0
-42 -77 0
-42 -81 0
-5 -53 0
-4 -5 0
-5 -77 0
-5 -81 0
-4 -53 0
-53 -77 0
-53 -81 0
-4 -77 0
-4 -81 0
-77 -81 0
-120 -147 0
-3 -147 0
-147 -154 0
-125 -147 0
-45 -147 0
-3 -120 0
-120 -154 0
-120 -125 0
-45 -120 0
-3 -154 0
-3 -125 0
-3 -45 0
-125 -154 0
-45 -154 0
-45 -125 0
-2 -157 0
-157 -161 0
-157 -164 0
-1 -157 0
-157 -167 0
-2 -161 0
-2 -164 0
-1 -2 0
-2 -167 0
-161 -164 0
-1 -161 0
-161 -167 0
-1 -164 0
-164 -167 0
-1 -167 0
-8 -107 0
-6 -8 0
-8 -42 0
-8 -147 0
-8 -157 0
-6 -107 0
-42 -107 0
-107 -147 0
-107 -157 0
-6 -42 0
-6 -147 0
-6 -157 0
-42 -147 0
-42 -157 0
-147 -157 0
-109 -118 0
-97 -118 0
-5 -118 0
-118 -120 0
-2 -118 0
-97 -109 0
-5 -109 0
-109 -120 0
-2 -109 0
-5 -97 0
-97 -120 0
-2 -97 0
-5 -120 0
-2 -5 0
-2 -120 0
-116 -173 0
-54 -173 0
-53 -173 0
-3 -173 0
-161 -173 0
-54 -116 0
-53 -116 0
-3 -116 0
-116 -161 0
-53 -54 0
-3 -54 0
-54 -161 0
-3 -53 0
-53 -161 0
-3 -161 0
-7 -70 0
-70 -110 0
-4 -70 0
-70 -154 0
-70 -164 0
-7 -110 0
-4 -7 0
-7 -154 0
-7 -164 0
-4 -110 0
-110 -154 0
-110 -164 0
-4 -154 0
-4 -164 0
-154 -164 0
-65 -122 0
-93 -122 0
-77 -122 0
-122 -125 0
-1 -122 0
-65 -93 0
-65 -77 0
-65 -125 0
-1 -65 0
-77 -93 0
-93 -125 0
-1 -93 0
-77 -125 0
-1 -77 0
-1 -125 0
-47 -74 0
-44 -47 0
-47 -81 0
-45 -47 0
-47 -167 0
-44 -74 0
-74 -81 0
-45 -74 0
-74 -167 0
-44 -81 0
-44 -45 0
-44 -167 0
-45 -81 0
-81 -167 0
-45 -167 0
